(set-logic QF_SLAH)

(declare-datatypes ((data_t 0)) (((c_data_t (sz Int)))))

(declare-heap (Int data_t))

(define-fun hck ((?x Int) (?y Int) (?v Int)) Bool
	(and
		(>= (- ?y ?x) 2) (<= (- ?y ?x) ?v)
		(sep (pto ?x (c_data_t (- ?y ?x))) (blk (+ ?x 1) ?y))
))

(define-fun-rec hls ((?x Int) (?y Int) (?v Int)) Bool
	(or
		(and (= ?x ?y) (_ emp Int data_t))
		(exists ((?w Int)) (sep (hck ?x ?w ?v) (hls ?w ?y ?v)))
))

(declare-const x0 Int)
(declare-const x1 Int)
(declare-const v0 Int)
(declare-const x2 Int)
(declare-const x3 Int)
(declare-const x4 Int)
(declare-const x5 Int)
(declare-const x6 Int)
(declare-const x7 Int)
(declare-const v6 Int)
(declare-const x8 Int)
(declare-const x9 Int)
(declare-const v8 Int)
(declare-const x10 Int)
(declare-const x11 Int)
(declare-const x12 Int)
(declare-const x13 Int)
(declare-const x14 Int)
(declare-const x15 Int)
(declare-const x16 Int)
(declare-const x17 Int)
(declare-const x18 Int)
(declare-const x19 Int)
(declare-const x20 Int)
(declare-const x21 Int)
(declare-const x22 Int)
(declare-const x23 Int)
(declare-const x24 Int)
(declare-const x25 Int)
(declare-const x26 Int)
(declare-const x27 Int)
(declare-const v26 Int)
(declare-const x28 Int)
(declare-const x29 Int)
(declare-const x30 Int)
(declare-const x31 Int)
(declare-const x32 Int)
(declare-const x33 Int)
(declare-const v32 Int)
(declare-const x34 Int)
(declare-const x35 Int)
(declare-const x36 Int)
(declare-const x37 Int)
(declare-const x38 Int)
(declare-const x39 Int)
(declare-const x40 Int)
(declare-const x41 Int)
(declare-const x42 Int)
(declare-const x43 Int)
(declare-const x44 Int)
(declare-const x45 Int)
(declare-const v44 Int)
(declare-const x46 Int)
(declare-const x47 Int)
(declare-const x48 Int)
(declare-const x49 Int)
(declare-const x50 Int)
(declare-const x51 Int)
(declare-const x52 Int)
(declare-const x53 Int)
(declare-const x54 Int)
(declare-const x55 Int)
(declare-const v54 Int)
(declare-const x56 Int)
(declare-const x57 Int)
(declare-const x58 Int)
(declare-const x59 Int)
(declare-const x60 Int)
(declare-const x61 Int)
(declare-const v60 Int)
(declare-const x62 Int)
(declare-const x63 Int)
(declare-const x64 Int)
(declare-const x65 Int)
(declare-const x66 Int)
(declare-const x67 Int)
(declare-const v66 Int)
(declare-const x68 Int)
(declare-const x69 Int)
(declare-const x70 Int)
(declare-const x71 Int)
(declare-const x72 Int)
(declare-const x73 Int)
(declare-const v72 Int)
(declare-const x74 Int)
(declare-const x75 Int)
(declare-const v74 Int)
(declare-const x76 Int)
(declare-const x77 Int)
(declare-const v76 Int)
(declare-const x78 Int)
(declare-const x79 Int)
(declare-const v78 Int)
(declare-const x80 Int)
(declare-const x81 Int)
(declare-const x82 Int)
(declare-const x83 Int)
(declare-const x84 Int)
(declare-const x85 Int)
(declare-const v84 Int)
(declare-const x86 Int)
(declare-const x87 Int)
(declare-const x88 Int)
(declare-const x89 Int)
(declare-const v88 Int)
(declare-const x90 Int)
(declare-const x91 Int)
(declare-const x92 Int)
(declare-const x93 Int)
(declare-const x94 Int)
(declare-const x95 Int)
(declare-const x96 Int)
(declare-const x97 Int)
(declare-const v96 Int)
(declare-const x98 Int)
(declare-const x99 Int)

(assert(and
(= x78 x58) (= x35 x69) (= x27 x7) (< x62 x66) (= x54 x47) (distinct x79 x38) (distinct x20 x21) (= x98 x28) 
(sep
(hls x0 x1 v0)
(pto x2 (c_data_t x3))
(blk x4 x5)
(hls x6 x7 v6)
(hls x8 x9 v8)
(blk x10 x11)
(blk x12 x13)
(blk x14 x15)
(pto x16 (c_data_t x17))
(pto x18 (c_data_t x19))
(blk x20 x21)
(pto x22 (c_data_t x23))
(blk x24 x25)
(hls x26 x27 v26)
(pto x28 (c_data_t x29))
(pto x30 (c_data_t x31))
(hls x32 x33 v32)
(blk x34 x35)
(blk x36 x37)
(blk x38 x39)
(pto x40 (c_data_t x41))
(pto x42 (c_data_t x43))
(hls x44 x45 v44)
(pto x46 (c_data_t x47))
(pto x48 (c_data_t x49))
(pto x50 (c_data_t x51))
(blk x52 x53)
(hls x54 x55 v54)
(pto x56 (c_data_t x57))
(pto x58 (c_data_t x59))
(hls x60 x61 v60)
(pto x62 (c_data_t x63))
(blk x64 x65)
(hls x66 x67 v66)
(blk x68 x69)
(blk x70 x71)
(hls x72 x73 v72)
(hls x74 x75 v74)
(hls x76 x77 v76)
(hls x78 x79 v78)
(blk x80 x81)
(pto x82 (c_data_t x83))
(hls x84 x85 v84)
(blk x86 x87)
(hls x88 x89 v88)
(pto x90 (c_data_t x91))
(pto x92 (c_data_t x93))
(blk x94 x95)
(hls x96 x97 v96)
(blk x98 x99)
)))

(check-sat)